0 4170
2401 4075
4802 3997
7203 3932
9604 3887
12005 3843
14406 3804
16807 3782
19208 3762
21609 3728
24010 3714
26411 3687
28812 3664
31213 3655
33614 3627
36015 3620
38416 3603
40817 3596
43218 3586
45619 3579
48020 3568
50421 3554
52822 3549
55223 3545
57624 3544
60025 3533
62426 3526
64827 3524
67228 3521
69629 3519
170471 3513
172872 3508
182476 3507
242501 3506
256907 3505
259308 3501
268912 3499
273714 3492
276115 3491
434581 3489
511413 3488
912380 3486
